33D32945 STP File, STP Format Version 1.0

SECTION Comments
Name "nsimp_8"
Creator "Warren Smith"
Problem "Euclidean Steiner Tree Problem"
Remark "Converted automatically"
END

SECTION Graph
Nodes 9
END

SECTION Coordinates
DDDDDDDDD 1 1.00000000000000 0.00000000000000 0.00000000000000 0.00000000000000 0.00000000000000 0.00000000000000 0.00000000000000 0.00000000000000 0.00000000000000 
DDDDDDDDD 2 0.00000000000000 1.00000000000000 0.00000000000000 0.00000000000000 0.00000000000000 0.00000000000000 0.00000000000000 0.00000000000000 0.00000000000000 
DDDDDDDDD 3 0.00000000000000 0.00000000000000 1.00000000000000 0.00000000000000 0.00000000000000 0.00000000000000 0.00000000000000 0.00000000000000 0.00000000000000 
DDDDDDDDD 4 0.00000000000000 0.00000000000000 0.00000000000000 1.00000000000000 0.00000000000000 0.00000000000000 0.00000000000000 0.00000000000000 0.00000000000000 
DDDDDDDDD 5 0.00000000000000 0.00000000000000 0.00000000000000 0.00000000000000 1.00000000000000 0.00000000000000 0.00000000000000 0.00000000000000 0.00000000000000 
DDDDDDDDD 6 0.00000000000000 0.00000000000000 0.00000000000000 0.00000000000000 0.00000000000000 1.00000000000000 0.00000000000000 0.00000000000000 0.00000000000000 
DDDDDDDDD 7 0.00000000000000 0.00000000000000 0.00000000000000 0.00000000000000 0.00000000000000 0.00000000000000 1.00000000000000 0.00000000000000 0.00000000000000 
DDDDDDDDD 8 0.00000000000000 0.00000000000000 0.00000000000000 0.00000000000000 0.00000000000000 0.00000000000000 0.00000000000000 1.00000000000000 0.00000000000000 
DDDDDDDDD 9 0.00000000000000 0.00000000000000 0.00000000000000 0.00000000000000 0.00000000000000 0.00000000000000 0.00000000000000 0.00000000000000 1.00000000000000 
END

EOF
